COMMENT: Europe-Subproblem of 666-city TSP (Groetschel)
37.44 38.43 41.11 37.23 36.32 36.43 37.13 37.53 38.21 39.28 41.23 41.38 40.24 41.39 43.15 43.22 38.54 39.34 42.3 44.5 43.36 43.18 43.42 43.42 42.42 45.5 45.26 45.45 45.1 48.24 48.05 47.13 47.23 49.3 48.52 49.15 47.19 48.41 48.35 49.36 50.38 50.5 50.38 51.03 51.13 51.26 51.55 52.22 52.05 53.13 50.23 50.43 50.5 51.29 51.27 51.3 52.3 53.25 53.3 53.23 53.5 54.59 55.57 55.53 56.28 57.1 60.09 62.01 51.54 52.4 53.2 54.35 55 64.09 64.11 76.34 70.4 68.26 65.01 61.3 60.27 60.1 63.25 60.23 58.58 59.55 57.43 55.36 58.25 59.2 57.38 56.09 55.24 55.4 53.04 53.33 54.2 54.05 51.57 52.24 52.07 52.31 50.47 50.44 50.56 51.12 51.17 51.28 51.28 51.32 51.31 51.19 50.58 51.29 51.19 50.5 51.03 49.14 50.07 49.25 49.48 49.27 49.03 48.46 49.01 48.08 46.12 46.31 46.57 47.33 47.23 47.16 47.48 48.18 48.13 47.05 45.03 45.28 45.27 45.27 45.4 44.25 44.29 43.46 43.55 39.2 41.54 40.51 41.27 41.07 40.28 38.11 37.3 38.07 35.54 53.24 54.23 53.08 52.25 51.46 52.15 53.09 51.06 50.16 50.03 51.15 49.45 50.05 49.5 49.12 48.09 48.43 47.3 47.32 46.05 46.15 45.45 46.47 47.1 45.48 45.39 44.26 44.11 46.03 45.2 45.48 43.31 43.52 44.5 42.38 41.59 41.2 42.41 42.09 43.13 42.3 39.36 40.38 38.15 37.58 35.2 35.1
-25.4 -9.08 -8.36 -5.59 -6.18 -4.25 -3.41 -4.46 -0.29 -0.22 2.11 -0.53 -3.41 -4.43 -2.58 -8.23 1.26 2.39 1.31 -0.34 1.26 5.24 7.15 7.23 9.27 1.16 4.24 4.51 5.43 -4.29 -1.41 -1.33 0.41 0.08 2.2 4.02 5.01 6.12 7.45 6.09 5.34 4.2 3.04 3.43 4.25 5.28 4.28 4.54 5.08 6.33 -4.1 -1.54 -0.08 -3.13 -2.35 -0.1 -1.5 -2.55 -2.15 -1.3 -1.35 -1.35 -3.13 -4.15 -3 -2.04 -1.09 -6.46 -8.28 -8.38 -6.15 -5.55 -7.19 -21.51 -51.44 -68.47 23.42 17.25 25.28 23.45 22.17 24.58 10.25 5.2 5.45 10.45 11.58 13 15.37 18.03 18.18 10.13 10.23 12.35 8.49 9.59 10.08 12.07 7.37 9.44 11.38 13.24 6.05 7.05 6.59 6.47 7.17 7.01 7.13 7.13 7.28 9.29 11.01 11.58 12.2 12.55 13.44 6.59 8.4 8.43 9.56 11.04 8.24 9.11 12.06 11.34 6.09 6.38 7.26 7.35 8.32 11.24 13.02 14.18 16.2 15.27 7.4 9.12 11 12.21 13.46 8.57 11.2 11.15 12.28 9 12.29 14.17 15.34 16.52 17.15 15.33 15.06 13.21 14.31 14.32 18.4 18 16.55 19.3 21 23.09 17 19 19.58 22.35 13.23 14.26 18.17 16.37 17.07 21.15 19.05 21.38 18.13 20.09 21.13 23.36 27.35 24.09 25.37 26.06 28.39 14.31 14.27 15.58 16.27 18.25 20.3 18.07 21.26 19.5 23.19 24.45 27.55 27.28 19.56 22.56 21.44 23.43 25.09 33.22
2890.88 2884.98 2877.3 2873.74 2842.89 2777.91 2746.91 2728.55 2714.54 2666.75 2666.75 2653.52 2653.52 2645.1 2561.63 2561.63 2561.63 2524.76 2524.76 2524.76 2521.21 2487.69 2487.69 2443.7 2443.7 2443.7 2396.98 2396.98 2396.98 2356.89 2356.89 2356.89 2337.32 2337.32 2337.32 2337.32 2337.32 2337.32 2294.1 2294.1 2294.1 2288.31 2288.31 2288.31 2275.61 2275.61 2275.61 2275.61 2241.07 2238.69 2238.69 2238.69 2238.69 2238.69 2231.66 2231.66 2224.13 2159.18 2159.18 2159.18 2159.18 2157.23 2157.23 2157.23 2125.61 2125.61 2125.61 2125.61 2125.61 2125.61 2103.6 2049.54 2049.54 2049.54 2049.54 2049.54 2049.54 2049.54 2049.54 2049.54 2049.54 2049.54 2049.54 2047.71 2047.71 2047.71 2047.71 2043.83 2038.53 2038.53 2038.53 2032.97 2008.79 2008.79 1951.42 1951.42 1951.42 1951.42 1951.42 1951.42 1951.42 1951.42 1951.42 1924.42 1924.42 1924.42 1908.14 1908.14 1908.14 1908.14 1908.14 1908.14 1908.14 1905.92 1887.92 1887.92 1887.92 1887.92 1865.86 1865.86 1865.86 1865.86 1865.86 1845.98 1845.98 1845.98 1837.86 1817.39 1817.39 1810.14 1810.14 1810.14 1809.97 1809.97 1809.97 1793.05 1793.05 1793.05 1793.05 1793.05 1793.05 1793.05 1793.05 1793.05 1789.87 1789.87 1779.46 1769.07 1769.07 1762.5 1762.5 1762.5 1756.23 1756.23 1756.23 1756.23 1711.64 1711.64 1711.64 1711.64 1711.64 1711.64 1711.64 1711.64 1711.64 1711.64 1711.64 1711.64 1711.64 1711.64 1711.64 1711.64 1711.64 1695.93 1695.93 1689.4 1689.4 1689.4 1689.4 1689.4 1676.26 1676.26 1676.26 1676.26 1676.26 1669.83 1664.12 1664.12 1658.62 1642.2 1642.2 1642.2 1642.2 1642.2 1642.2 1634.3 1634.3 1628.32 1628.32 1628.32 1628.32 1628.32 1628.32 1628.14 1603.48 1603.48 1603.48 1603.48 1598.35 1583.49 1583.49 1583.49 1583.49 1583.49 1583.49 1580.18 1580.18 1580.18 1580.18 1580.18 1580.18 1578.96 1578.96 1578.96 1575.84 1573.33 1573.33 1554.44 1554.44 1554.44 1554.44 1554.44 1530.99 1530.99 1513.62 1513.62 1488.66 1488.66 1488.66 1488.66 1488.66 1488.66 1488.66 1488.66 1488.66 1488.66 1488.66 1488.66 1475.37 1475.37 1475.37 1475.37 1475.37 1472.54 1471.19 1466.07 1466.07 1464.76 1450.84 1450.84 1450.84 1450.84 1442.77 1432 1432 1432 1432 1432 1432 1430.64 1430.64 1430.64 1415.45 1415.45 1415.45 1415.45 1415.45 1408.12 1408.12 1408.12 1403.03 1403.03 1403.03 1403.03 1403.03 1403.03 1397.64 1397.64 1397.64 1386.87 1378.18 1378.18 1378.18 1378.18 1378.18 1378.18 1378.18 1378.18 1378.18 1378.18 1359.15 1359.15 1359.15 1359.15 1359.15 1357.57 1357.57 1357.57 1357.57 1351.95 1351.95 1337.37 1337.37 1337.37 1337.37 1337.37 1337.37 1330.39 1330.39 1330.39 1330.39 1330.39 1330.39 1330.39 1330.39 1330.39 1330.39 1328.27 1328.27 1328.27 1328.27 1328.27 1328.27 1328.27 1317.78 1317.78 1317.78 1317.78 1317.78 1314.58 1314.58 1314.58 1314.58 1310.81 1310.81 1300.62 1300.62 1300.62 1280.63 1280.63 1280.63 1280.63 1280.63 1280.63 1280.63 1280.63 1280.63 1280.63 1280.63 1280.63 1280.63 1280.63 1273.16 1273.16 1273.16 1273.16 1273.16 1273.16 1266.57 1266.57 1266.57 1266.57 1266.57 1238.25 1238.25 1238.25 1238.25 1238.25 1238.25 1238.25 1238.25 1238.25 1238.25 1238.25 1238.25 1238.25 1238.25 1238.25 1238.25 1238.25 1235.71 1235.71 1235.71 1235.71 1235.71 1235.71 1226.46 1226.46 1226.46 1226.46 1226.46 1226.46 1226.46 1226.46 1225.13 1219.17 1219.17 1219.17 1219.17 1219.17 1208.8 1208.8 1208.8 1208.8 1208.8 1208.8 1208.8 1208.8 1208.8 1208.8 1208.8 1208.8 1208.8 1198.07 1198.07 1198.07 1198.07 1198.07 1198.07 1198.07 1198.07 1198.07 1198.07 1198.07 1198.07 1198.07 1198.07 1198.07 1198.07 1198.07 1198.07 1198.07 1197.08 1197.08 1192.67 1192.67 1192.67 1192.67 1192.15 1190.81 1190.81 1187.11 1178.29 1178.29 1178.29 1178.29 1178.29 1178.29 1178.29 1178.29 1178.29 1178.29 1178.29 1178.29 1178.29 1169.4 1169.4 1169.4 1169.4 1169.4 1163.37 1157.67 1157.67 1157.67 1157.67 1157.67 1154.77 1154.77 1154.77 1153.74 1152.24 1152.24 1152.24 1152.24 1148.91 1148.91 1148.91 1148.91 1148.91 1148.91 1148.91 1146.42 1146.42 1146.42 1146.42 1143.48 1142.62 1142.62 1142.62 1142.62 1142.62 1142.62 1135.94 1135.94 1135.94 1135.94 1135.19 1135.19 1135.19 1131.96 1131.96 1131.96 1131.96 1131.96 1131.96 1131.96 1128.24 1128.24 1128.24 1128.24 1128.24 1128.24 1128.19 1128.19 1127.61 1127.61 1127.61 1127.61 1123.6 1121 1121 1121 1121 1119.57 1119.35 1119.35 1118.23 1118.23 1118.23 1118.23 1116.23 1116.23 1108.67 1108.67 1099.55 1099.55 1099.55 1099.55 1099.55 1099.55 1099.55 1099.55 1099.55 1099.55 1099.55 1097.91 1097.91 1097.91 1097.91 1097.91 1097.91 1097.91 1097.91 1097.91 1097.91 1097.91 1093.55 1093.55 1093.55 1093.55 1093.55 1093.55 1093.55 1093.55 1093.55 1093.55 1093.55 1090.57 1090.57 1090.57 1090.57 1090.57 1090.57 1090.57 1090.57 1090.57 1090.57 1090.57 1090.57 1090.57 1090.57 1079.21 1079.21 1079.21 1079.21 1079.21 1079.21 1079.21 1079.21 1079.21 1079.21 1079.21 1079.21 1079.21 1079.21 1079.21 1079.21 1079.21 1079.21 1079.21 1079.21 1079.21 1079.21 1079.21 1079.21 1079.21 1079.21 1079.21 1079.21 1079.21 1079.21 1076.89 1076.89 1076.89 1076.89 1076.89 1076.89 1076.89 1076.89 1076.89 1076.89 1076.89 1076.89 1076.76 1073.54 1073.54 1073.54 1073.54 1073.54 1073.54 1073.54 1073.54 1070.51 1070.51 1070.51 1070.51 1070.51 1070.51 1070.51 1070.51 1070.51 1070.51 1070.51 1070.51 1070.51 1070.51 1070.51 1069.45 1069.45 1069.45 1069.45 1069.45 1067.53 1067.31 1067.31 1067.31 1067.31 1067.31 1067.31 1067.31 1067.31 1067.31 1066.59 1062.97 1062.97 1062.97 1061.91 1061.91 1061.91 1061.91 1061.91 1061.91 1053.69 1053.69 1053.69 1053.69 1053.69 1053.69 1053.69 1053.69 1053.69 1052.96 1052.96 1052.96 1052.96 1052.96 1052.96 1043.5 1043.5 1043.5 1043.5 1043.5 1043.5 1043.5 1043.5 1043.5 1043.5 1043.5 1043.5 1043.5 1043.5 1043.5 1043.5 1043.5 1043.5 1043.5 1043.5 1043.47 1043.47 1043.47 1043.47 1043.47 1043.47 1043.47 1043.47 1041.29 1041.29 1041.29 1041.29 1041.29 1041.29 1041.29 1040.4 1038.13 1036.15 1036.15 1036.15 1036.15 1036.15 1036.15 1036.15 1036.15 1033.07 1033.07 1033.07 1033.07 1033.07 1033.07 1033.07 1033.07 1033.07 1027.06 1027.06 1027.06 1027.06 1027.06 1027.06 1027.06 1027.06 1027.06 1027.06 1027.06 1027.06 1027.06 1027.06 1027.06 1027.06 1027.06 1027.06 1027.06 1027.06 1027.06 1027.06 1027.06 1027.06 1023.56 1023.56 1022.56 1022.56 1022.56 1022.56 1022.04 1022.04 1021.73 1021.73 1021.73 1019.23 1019.23 1019.23 1019.23 1018.88 1012.67 1012.67 1012.67 1012.67 1008.98 1008.98 1008.98 1008.98 1008.98 1008.98 1008.98 1008.98 1008.98 1008.44 1008.44 1008.44 1008.44 1008.44 1008.44 1008.44 1008.44 1008.44 1008.44 1008.44 1008.22 1008.22 1007.23 995.698 995.698 995.698 995.698 995.698 995.698 995.698 995.698 995.698 995.698 995.698 995.698 995.698 995.698 995.698 995.066 995.066 995.066 991.17 991.17 991.17 991.17 991.17 991.17 991.17 991.17 991.17 991.17 991.17 991.17 991.17 991.17 985.057 985.057 985.057 985.057 985.057 985.057 985.057 985.057 985.057 976.2 976.2 976.2 976.2 976.2 976.2 976.2 976.2 976.2 976.2 976.2 976.2 976.2 976.2 976.2 976.2 976.2 976.2 976.2 976.2 976.2 975.693 969.139 969.139 969.139 969.139 969.139 968.89 968.89 968.89 968.89 965.066 965.066 965.066 965.066 962.613 962.613 962.613 953.139 953.139 953.139 953.139 953.139 953.139 948.722 948.722 948.722 948.722 948.722 948.722 948.722 948.722 948.722 948.722 948.722 948.722 948.722 936.125 936.125 936.125 936.125 936.125 936.125 936.125 936.125 936.125 936.125 936.125 936.125 936.125 936.125 936.125 936.125 936.125 936.125 936.125 936.125 936.125 936.125 936.125 936.125 936.125 936.125 936.125 936.125 934.472 930.914 930.914 930.914 930.914 930.914 930.914 930.914 930.914 930.914 930.914 930.914 930.914 930.914 930.914 930.914 930.914 930.914 930.914 930.914 930.914 930.914 930.914 930.914 930.914 930.914 930.002 930.002 930.002 930.002 930.002 930.002 930.002 929.24 929.24 925.269 925.269 925.269 925.269 925.269 921.617 921.617 921.617 921.617 921.617 921.617 921.617 921.617 921.617 921.617 921.617 921.617 921.617 921.617 921.617 921.617 921.617 921.617 921.617 921.617 921.617 921.617 915.77 912.117 912.117 912.117 912.117 912.117 912.117 912.117 912.117 912.117 912.117 912.117 912.117 912.117 912.117 912.041 912.041 912.041 912.041 912.041 912.041 912.041 912.041 912.041 912.041 912.041 912.041 912.041 912.041 912.041 911.556 911.556 911.466 911.466 907.349 907.349 907.349 907.349 906.432 906.432 896.606 896.606 896.606 896.606 896.606 896.606 896.606 896.606 896.606 896.606 896.606 896.606 896.606 896.606 896.606 896.606 896.606 895.234 895.234 895.234 895.234 895.234 895.234 895.234 895.234 895.234 895.234 890.883 890.883 890.883 890.883 890.883 890.883 890.883 890.883 889.48 889.48 889.48 889.48 889.48 889.48 889.48 889.48 889.48 889.48 888.839 888.839 888.839 888.839 888.039 886.871 886.871 886.871 886.871 886.871 886.871 886.871 885.141 885.141 881.884 881.884 881.884 881.884 881.884 881.884 881.884 881.884 875.782 875.782 875.782 875.782 875.782 875.782 875.782 875.782 875.782 875.782 875.782 875.782 875.782 874.563 874.563 874.563 874.563 874.563 874.563 874.563 869.747 869.747 869.747 869.747 868.142 868.142 868.142 868.142 868.142 868.142 868.142 868.142 868.142 868.142 868.142 868.142 868.142 868.142 868.142 868.142 868.142 868.142 868.142 868.142 866.946 864.567 864.567 864.567 864.567 864.567 862.018 862.018 862.018 862.018 862.018 862.018 862.018 862.018 862.018 862.018 862.018 862.018 862.018 862.018 862.018 862.018 862.018 854.097 854.097 854.097 854.097 854.097 854.097 854.097 854.097 854.097 854.097 854.097 854.097 854.097 854.097 854.097 854.097 854.097 851.113 851.113 851.113 845.919 845.919 845.919 845.919 845.919 845.919 845.919 843.455 843.455 843.455 843.455 843.455 843.455 843.455 843.455 843.455 843.455 843.455 843.455 843.455 843.455 843.455 843.455 843.455 843.455 843.455 843.455 843.455 843.455 843.455 843.455 843.455 842.372 842.372 842.372 842.372 842.372 842.372 839.683 839.683 839.683 839.683 839.683 839.683 839.683 839.683 839.683 839.683 839.683 839.683 839.683 839.683 839.683 837.442 837.442 837.442 835.039 835.039 835.039 835.039 835.039 835.039 835.039 835.039 835.039 835.039 833.91 833.91 832.349 832.349 832.349 832.349 832.349 832.349 832.141 832.141 832.141 832.141 832.141 832.141 832.141 832.141 832.141 831.589 831.589 831.589 828.169 828.169 828.169 828.169 828.169 828.169 828.169 828.169 828.169 828.169 828.169 828.169 828.169 828.169 828.169 828.169 828.169 828.169 828.169 828.169 827.035 824.159 824.159 824.159 824.159 824.159 824.159 824.159 824.159 824.159 824.159 824.159 824.159 824.159 824.159 824.159 824.159 824.159 823.083 818.793 818.793 818.793 818.793 818.793 818.009 815.051 815.051 815.051 815.051 815.051 815.051 815.051 815.051 815.051 815.051 815.051 815.051 815.051 815.051 815.051 815.051 815.006 815.006 814.232 814.232 814.232 814.232 813.512 813.512 813.512 813.512 813.512 812.278 812.278 812.278 812.278 811.495 811.495 811.495 811.495 811.495 811.495 811.495 811.495 811.495 811.495 811.495 811.495 811.495 810.517 810.517 810.517 810.517 808.438 808.438 808.438 808.438 808.364 808.364 808.364 804.651 804.651 804.651 804.651 804.651 804.651 804.651 804.651 804.651 804.651 804.651 804.651 804.651 800.046 800.046 800.046 800.046 800.046 800.046 800.046 800.046 800.046 800.046 800.046 800.046 800.046 800.046 799.539 799.539 799.539 799.539 799.539 799.539 798.037 798.037 798.037 797.419 796.005 796.005 796.005 796.005 796.005 796.005 789.966 788.098 788.098 788.098 788.098 788.098 788.098 788.098 788.098 788.098 788.098 788.098 788.098 788.098 786.181 786.052 786.052 786.052 785.038 785.038 785.038 785.038 785.038 785.038 785.038 785.038 785.038 785.038 785.038 785.038 785.038 785.038 785.038 783.596 781.55 779.296 779.296 779.296 779.296 779.296 779.296 779.296 779.296 779.296 779.296 779.296 777.068 777.068 777.068 775.2 775.2 775.2 775.2 775.2 775.2 774.112 774.112 774.112 773.439 773.439 773.439 773.439 773.439 773.439 773.439 773.439 773.439 772.954 772.954 772.954 769.926 769.926 769.926 769.926 769.926 769.926 769.926 769.926 769.926 769.926 769.926 769.926 769.926 769.926 769.926 769.926 769.926 769.926 769.303 769.303 769.303 769.303 769.303 767.879 767.879 767.879 767.879 767.879 767.879 767.879 767.879 767.879 766.69 766.69 766.69 766.69 765.686 765.686 765.686 765.686 765.686 765.686 765.686 765.36 765.36 765.36 765.36 762.359 762.359 762.359 762.359 762.359 762.359 762.359 762.359 762.359 762.359 762.359 762.359 762.359 762.359 762.359 761.414 761.414 761.414 761.414 761.414 761.414 761.414 759.12 759.12 759.12 759.12 759.12 759.12 759.12 759.12 759.12 758.431 758.431 757.495 757.182 757.182 756.823 756.823 755.345 755.345 755.345 755.345 755.345 755.345 755.345 755.162 755.162 755.162 755.162 754.837 754.837 754.837 754.837 754.837 754.837 754.837 754.837 754.837 754.837 754.429 754.429 754.429 754.429 754.022 754.022 754.022 754.022 754.022 754.022 753.22 753.22 753.22 753.018 752.682 752.682 751.74 751.74 751.74 751.74 750.829 750.829 750.829 750.829 750.829 750.829 747.591 747.591 747.591 747.591 747.591 747.591 747.591 747.591 747.591 747.591 747.591 747.591 747.591 747.591 747.384 747.384 745.905 745.905 745.905 745.905 745.905 745.905 745.905 745.905 745.905 745.905 745.681 744.783 744.783 743.208 743.208 743.208 743.208 743.208 743.208 743.208 743.208 743.208 743.208 743.208 743.208 743.208 743.208 743.042 743.042 741.007 741.007 741.007 741.007 741.007 741.007 741.007 741.007 741.007 739.402 739.402 739.402 739.402 739.402 739.354 739.354 739.354 739.354 739.354 739.354 739.354 736.827 736.827 736.827 736.827 736.827 736.827 736.827 736.827 736.827 736.827 736.827 736.827 736.827 736.827 736.827 736.827 736.827 736.827 736.827 736.827 736.827 736.827 736.596 736.543 735.165 735.065 735.065 735.065 734.508 734.508 734.303 734.303 734.303 733.385 733.385 733.385 733.385 733.03 733.03 733.03 733.03 733.03 733.03 732.788 732.788 732.683 732.683 732.683 732.683 732.683 732.683 732.683 731.516 730.932 730.932 730.932 730.932 730.932 730.932 730.932 730.932 730.932 729.517 729.517 729.517 729.517 729.517 729.517 729.517 729.23 729.23 729.23 729.23 729.23 729.23 729.23 729.23 729.23 729.23 728.468 725.373 725.373 725.373 725.373 725.373 725.373 725.373 725.373 725.373 725.373 725.373 725.373 725.373 725.373 725.373 725.373 725.373 725.373 725.373 725.373 725.373 725.373 725.373 725.373 725.373 725.373 725.373 725.373 725.373 725.373 725.373 725.373 725.373 725.373 725.373 725.373 725.373 725.373 723.661 723.661 723.661 723.661 723.661 721.836 721.836 718.896 718.896 718.896 718.896 718.896 718.896 718.896 718.896 718.896 718.896 718.896 718.505 718.505 718.505 718.505 718.505 718.505 718.505 718.505 718.505 718.505 718.505 718.505 717.869 717.869 717.869 717.869 717.869 717.869 717.869 717.869 717.869 716.58 716.58 716.58 716.58 716.58 716.58 716.58 716.58 716.58 716.58 716.58 714.697 714.697 714.697 714.697 714.697 714.697 714.697 714.697 714.697 714.697 714.345 714.345 714.345 714.345 714.345 714.345 713.523 713.523 713.523 713.523 713.523 713.523 713.523 713.523 713.523 713.523 713.523 713.523 713.242 713.242 713.242 713.242 712.235 712.235 712.235 712.235 712.235 711.742 711.742 710.962 710.962 710.926 710.926 710.926 710.926 710.926 710.926 710.926 710.789 710.789 710.789 710.789 710.789 710.789 710.789 710.789 710.789 710.789 710.789 710.104 710.104 710.104 710.104 710.104 710.104 710.104 709.632 709.221 709.221 709.221 709.221 709.221 709.221 709.221 709.221 709.221 709.221 709.221 709.221 709.221 709.221 709.221 708.656 708.353 708.184 708.184 708.184 707.931 707.931 707.931 706.929 706.929 706.929 706.929 706.929 706.929 706.929 706.482 706.482 706.482 706.482 706.482 706.482 706.482 706.482 706.482 706.31 705.372 702.368 702.368 702.368 702.368 702.368 702.368 702.368 702.368 702.368 702.368 702.368 702.368 702.368 702.368 702.368 702.368 702.368 702.368 702.368 702.368 702.368 702.368 702.368 702.368 702.368 702.368 702.368
85 84 83 86 92 87 89 88 94 97 96 95 105 39 118 103 48 49 45 107 114 112 100 167 168 156 102 117 170 171 135 136 134 133 187 192 191 197 152 155 148 149 150 151 190 188 163 90 78 77 79 80 82 81 91 160 165 174 173 169 164 161 166 180 178 193 194 202 201 200 199 198 196 195 183 181 182 179 162 157 158 159 172 176 177 189 175 153 154 147 145 28 27 34 53 62 67 68 74 76 75 1 69 70 72 73 64 63 66 65 52 54 51 16 3 2 4 8 5 6 7 9 146 23 137 139 140 185 141 184 186 143 144 142 22 21 19 12 15 13 18 11 127 128 129 130 38 37 40 123 113 116 115 101 98 93 108 104 119 124 131 120 106 99 110 109 50 42 44 43 36 35 32 31 55 57 60 56 61 59 58 71 30 33 20 17 10 14 26 29 24 25 138 132 125 126 122 121 111 46 41 47
1 3 16 14 13 12 15 20 26 33 32 31 30 51 69 70 71 72 73 64 63 65 66 62 61 60 59 58 57 54 55 52 56 53 34 35 36 40 118 38 37 28 27 29 127 128 129 131 130 39 123 124 120 119 121 122 125 126 132 133 134 167 168 117 116 115 114 113 112 99 111 110 109 108 107 106 105 104 103 41 42 43 44 45 46 47 49 48 50 95 100 101 102 156 98 96 97 93 92 94 88 87 86 83 84 85 67 68 74 75 76 77 78 79 80 82 81 90 89 91 157 158 159 163 160 161 162 166 165 164 169 170 135 171 173 172 174 178 180 181 179 182 183 195 196 202 201 200 199 197 198 194 193 191 192 190 187 188 189 177 176 175 186 136 184 185 141 140 139 143 144 145 147 148 149 150 151 152 153 155 154 146 25 142 138 137 24 23 22 21 19 11 18 17 10 9 7 6 8 4 5 2
